Read MPS format model from file dat/rmp/DER_96_4096_40.mps
Reading time = 0.72 seconds
: 4192 rows, 24864 columns, 2131852 nonzeros
Gurobi Optimizer version 9.0.0 build v9.0.0rc2 (linux64)
Optimize a model with 4192 rows, 24864 columns and 2131852 nonzeros
Model fingerprint: 0xa045899d
Coefficient statistics:
  Matrix range     [1e-04, 1e+01]
  Objective range  [8e-01, 1e+03]
  Bounds range     [2e+04, 2e+04]
  RHS range        [1e+00, 1e+00]
Ordering time: 0.01s

Barrier statistics:
 AA' NZ     : 3.755e+05
 Factor NZ  : 4.220e+05 (roughly 15 MBytes of memory)
 Factor Ops : 4.439e+07 (less than 1 second per iteration)
 Threads    : 1

                  Objective                Residual
Iter       Primal          Dual         Primal    Dual     Compl     Time
   0   1.38417945e+09 -2.04139567e+08  8.56e+06 2.64e-02  6.12e+05     0s
   1   3.89267412e+07 -3.05009411e+07  2.18e+05 3.64e-12  1.68e+04     1s
   2   4.75000005e+06 -8.27773482e+06  2.58e+04 3.64e-12  2.20e+03     1s
   3   7.18632895e+04 -4.40439135e+06  1.80e+02 3.64e-12  1.89e+02     1s
   4   2.89502728e+04  2.98855116e+03  4.59e-11 1.82e-12  1.04e+00     1s
   5   2.87971515e+04  2.07240182e+04  7.17e-11 3.64e-12  3.23e-01     1s
   6   2.86353306e+04  2.53000252e+04  5.09e-11 3.64e-12  1.34e-01     1s
   7   2.84716190e+04  2.75950465e+04  4.00e-11 1.82e-12  3.51e-02     1s
   8   2.83420678e+04  2.79844470e+04  8.47e-11 1.82e-12  1.43e-02     2s
   9   2.82352801e+04  2.81078167e+04  1.40e-10 3.64e-12  5.11e-03     2s
  10   2.81888096e+04  2.81400547e+04  2.22e-10 1.82e-12  1.95e-03     2s
  11   2.81752674e+04  2.81555970e+04  3.81e-10 1.82e-12  7.88e-04     2s
  12   2.81710251e+04  2.81602000e+04  2.20e-10 2.73e-12  4.34e-04     2s
  13   2.81688594e+04  2.81630972e+04  3.14e-10 1.82e-12  2.31e-04     3s
  14   2.81678305e+04  2.81641856e+04  3.41e-10 1.82e-12  1.46e-04     3s
  15   2.81663983e+04  2.81650760e+04  4.93e-10 1.82e-12  5.30e-05     3s
  16   2.81662497e+04  2.81652236e+04  6.17e-10 1.82e-12  4.11e-05     3s
  17   2.81658031e+04  2.81654504e+04  2.15e-09 3.64e-12  1.41e-05     3s
  18   2.81656245e+04  2.81655304e+04  2.80e-09 3.64e-12  3.77e-06     4s
  19   2.81655741e+04  2.81655475e+04  5.73e-09 1.82e-12  1.07e-06     4s
  20   2.81655572e+04  2.81655540e+04  2.01e-08 5.46e-12  1.32e-07     4s
  21   2.81655549e+04  2.81655544e+04  9.48e-07 3.64e-12  1.80e-08     4s
  22   2.81655546e+04  2.81655546e+04  1.06e-06 3.64e-12  1.53e-09     4s
  23   2.81655546e+04  2.81655546e+04  1.78e-05 3.64e-12  5.18e-11     4s
  24   2.81655546e+04  2.81655546e+04  2.46e-07 3.64e-12  7.36e-14     4s

Barrier solved model in 24 iterations and 4.40 seconds
Optimal objective 2.81655546e+04

Solve time: 4.407695727
Barrier iterations: 24
